NAME : kroA100-C-5-1-a__scheduled_bias_same_priority_ls20__24245.tour
COMMENT : Length = 24245.000
COMMENT : Generated by evaluate_ctspd.py for scheduled_bias_same_priority_ls20
TYPE : TOUR
DIMENSION : 100
TOUR_SECTION
12
27
35
86
20
62
60
77
1
47
91
98
23
45
32
11
15
17
59
74
21
72
10
92
8
42
89
31
80
56
97
75
19
4
65
26
66
70
22
94
16
88
53
79
18
24
38
99
36
84
90
49
6
63
93
28
67
58
69
64
40
54
2
44
82
95
13
76
33
37
5
52
78
96
39
50
73
68
85
81
25
61
51
87
57
9
7
55
83
34
29
46
43
3
41
71
100
14
48
30
-1
EOF
